RT is False
Default write of storage_offers_DA.csv just to have a file (but constraint should be inactive)
Reading model...
...model read.
creating competitive generators file...
...competitive generators recorded.
Loading data...
.. day-ahead data with real-time VRE data read.
Compiling instance...
...instance created.
Creating Offer Mitigation (model will solve as dispatch if TRUE)...
...storage offer mitigation file created
Converting model to MPEC...
...converted
NOTE: initial MIP solve with only storage competitive to get feasible solution
Solving...

Welcome to IBM(R) ILOG(R) CPLEX(R) Interactive Optimizer 12.9.0.0
  with Simplex, Mixed Integer & Barrier Optimizers
5725-A06 5725-A29 5724-Y48 5724-Y49 5724-Y54 5724-Y55 5655-Y21
Copyright IBM Corp. 1988, 2019.  All Rights Reserved.

Type 'help' for a list of available commands.
Type 'help' followed by a command name for more
information on commands.

CPLEX> Logfile 'cplex.log' closed.
Logfile 'C:\Users\Luke\Desktop\competitiveMPEC_1.16\logs\tmpxjdx7imy.cplex.log' open.
CPLEX> New value for parallel optimization mode: -1
CPLEX> New value for mixed integer optimality gap tolerance: 0.01
CPLEX> New value for presolve indicator: no
CPLEX> New value for feasibility tolerance: 0.001
CPLEX> New value for strategy to gather statistics on the kappa of subproblems: 2
CPLEX> New value for deterministic time limit in ticks: 150000
CPLEX> Problem 'C:\Users\Luke\Desktop\competitiveMPEC_1.16\logs\tmpsrl014uw.pyomo.lp' read.
Read time = 0.19 sec. (13.86 ticks)
CPLEX> Problem name         : C:\Users\Luke\Desktop\competitiveMPEC_1.16\logs\tmpsrl014uw.pyomo.lp
Objective sense      : Maximize
Variables            :   53321  [Nneg: 49,  Box: 21806,  Free: 4368,
                                 Binary: 27098]
Objective nonzeros   :    9029
Linear constraints   :  122164  [Less: 40983,  Greater: 58612,  Equal: 22569]
  Nonzeros           :  288457
  RHS nonzeros       :   66982

Variables            : Min LB: -5000.000        Max UB: 5000.000       
Objective nonzeros   : Min   : 0.1750000        Max   : 90000.00       
Linear constraints   :
  Nonzeros           : Min   : 0.1750000        Max   : 2910000.       
  RHS nonzeros       : Min   : 0.1750000        Max   : 3000000.       
CPLEX> CPXPARAM_Preprocessing_Presolve                  0
CPXPARAM_Parallel                                -1
CPXPARAM_MIP_Strategy_KappaStats                 2
CPXPARAM_Simplex_Tolerances_Feasibility          0.001
CPXPARAM_DetTimeLimit                            150000
CPXPARAM_MIP_Tolerances_MIPGap                   0.01
Clique table members: 18065.
MIP emphasis: balance optimality and feasibility.
MIP search method: dynamic search.
Parallel mode: opportunistic, using up to 24 threads.
Root relaxation solution time = 1.03 sec. (613.25 ticks)

        Nodes                                         Cuts/
   Node  Left     Objective  IInf  Best Integer    Best Bound    ItCnt     Gap

      0     0      -45.5696   132                    -45.5696       24         
      0     0      -45.5990     4                    Cuts: 10       43         
      0     0      -51.1045     2                    Cuts: 18       45         
*     0+    0                        -5891.6418      -51.1045            99.13%
      0     2      -51.1045     4    -5891.6418   Impl Bds: 3       45   99.13%
Elapsed time = 20.77 sec. (18592.05 ticks, tree = 0.02 MB, solutions = 0)
     13    20     -453.4133     2    -5891.6418     -116.8279      585   98.02%
     46    30     -234.2580     2    -5891.6418     -116.8279      987   98.02%
*    54    22      integral     0     -130.8499     -116.8279      764   10.72%
     70    32     -306.9450     9     -130.8499     -116.8279     1005   10.72%
     80    13     -306.9450     9     -130.8499     -116.8279      118   10.72%
     86    21     -510.6104     4     -130.8499     -116.8279      544   10.72%
     92    21    -3354.4064     7     -130.8499     -116.8279      547   10.72%
     95     6    -3675.4278    20     -130.8499     -116.8279      203   10.72%
    100    20 -1563672.5377     5     -130.8499     -116.8279      635   10.72%
    104     5  -2.12714e+07    26     -130.8499     -130.8499      227    0.00%

Implied bound cuts applied:  30
Flow cuts applied:  4
Gomory fractional cuts applied:  1

Root node processing (before b&c):
  Real time             =   17.25 sec. (18497.41 ticks)
Parallel b&c, 24 threads:
  Real time             =    5.41 sec. (3121.48 ticks)
  Sync time (average)   =    1.70 sec.
  Wait time (average)   =    0.00 sec.
                          ------------
Total (root+branch&cut) =   22.66 sec. (21618.89 ticks)

Solution pool: 1 solution saved.

MIP - Integer optimal solution:  Objective = -1.3084990813e+02
Solution time =   22.66 sec.  Iterations = 1595  Nodes = 108
Deterministic time = 21619.04 ticks  (954.23 ticks/sec)

CPLEX> Incumbent solution written to file 'C:\Users\Luke\Desktop\competitiveMPEC_1.16\logs\tmpr9y7d0r5.cplex.sol'.
CPLEX> NOTE: no warmstart specified for MIP iteration, default behavior is true
NOTE: resolving with all competitive generators using storage-only solution to warmstart
Solving...

Welcome to IBM(R) ILOG(R) CPLEX(R) Interactive Optimizer 12.9.0.0
  with Simplex, Mixed Integer & Barrier Optimizers
5725-A06 5725-A29 5724-Y48 5724-Y49 5724-Y54 5724-Y55 5655-Y21
Copyright IBM Corp. 1988, 2019.  All Rights Reserved.

Type 'help' for a list of available commands.
Type 'help' followed by a command name for more
information on commands.

CPLEX> Logfile 'cplex.log' closed.
Logfile 'C:\Users\Luke\Desktop\competitiveMPEC_1.16\logs\tmp9wetwb5b.cplex.log' open.
CPLEX> New value for parallel optimization mode: -1
CPLEX> New value for mixed integer optimality gap tolerance: 0.01
CPLEX> New value for presolve indicator: no
CPLEX> New value for feasibility tolerance: 0.001
CPLEX> New value for strategy to gather statistics on the kappa of subproblems: 2
CPLEX> New value for deterministic time limit in ticks: 150000
CPLEX> Problem 'C:\Users\Luke\Desktop\competitiveMPEC_1.16\logs\tmpfm4mzyqh.pyomo.lp' read.
Read time = 0.19 sec. (13.86 ticks)
CPLEX> MIP start file 'C:\Users\Luke\Desktop\competitiveMPEC_1.16\logs\tmpji3igh7o.cplex.mst' read.
CPLEX> Problem name         : C:\Users\Luke\Desktop\competitiveMPEC_1.16\logs\tmpfm4mzyqh.pyomo.lp
Objective sense      : Maximize
Variables            :   53321  [Nneg: 49,  Box: 21806,  Free: 4368,
                                 Binary: 27098]
Objective nonzeros   :    9029
Linear constraints   :  122164  [Less: 40983,  Greater: 58612,  Equal: 22569]
  Nonzeros           :  288457
  RHS nonzeros       :   66982

Variables            : Min LB: -5000.000        Max UB: 5000.000       
Objective nonzeros   : Min   : 0.1750000        Max   : 90000.00       
Linear constraints   :
  Nonzeros           : Min   : 0.1750000        Max   : 2910000.       
  RHS nonzeros       : Min   : 0.1750000        Max   : 3000000.       
CPLEX> CPXPARAM_Preprocessing_Presolve                  0
CPXPARAM_Parallel                                -1
CPXPARAM_MIP_Strategy_KappaStats                 2
CPXPARAM_Simplex_Tolerances_Feasibility          0.001
CPXPARAM_DetTimeLimit                            150000
CPXPARAM_MIP_Tolerances_MIPGap                   0.01
Warning:  No solution found from 1 MIP starts.
Retaining values of one MIP start for possible repair.
Clique table members: 18065.
MIP emphasis: balance optimality and feasibility.
MIP search method: dynamic search.
Parallel mode: opportunistic, using up to 24 threads.
Root relaxation solution time = 1.03 sec. (613.25 ticks)

        Nodes                                         Cuts/
   Node  Left     Objective  IInf  Best Integer    Best Bound    ItCnt     Gap

      0     0      -45.5696   132                    -45.5696       24         
      0     0      -45.5990     4                    Cuts: 10       43         
      0     0      -51.1045     2                    Cuts: 18       45         
*     0+    0                        -5891.6418      -51.1045            99.13%
      0     2      -51.1045     4    -5891.6418   Impl Bds: 2       45   99.13%
Elapsed time = 20.02 sec. (18618.52 ticks, tree = 0.02 MB, solutions = 1)
      6    20     -154.9936     7    -5891.6418     -116.8279      176   98.02%
     33    13     -116.8279     5     -130.8499     -116.8279      114   10.72%
     49     9     -116.8279     5     -130.8499     -116.8279       83   10.72%
     60    19        cutoff           -130.8499     -116.8279      173   10.72%
     60    19     -130.8499     0     -130.8499     -116.8279      173   10.72%
     66    17    -3193.0329     7     -130.8499     -116.8279      153   10.72%
     68     6    -3675.4278    20     -130.8499     -116.8279      203   10.72%
     71    20  -3.48333e+07    20     -130.8499     -116.8279      369   10.72%

Implied bound cuts applied:  17
Flow cuts applied:  4
Gomory fractional cuts applied:  1

Root node processing (before b&c):
  Real time             =   17.08 sec. (18523.88 ticks)
Parallel b&c, 24 threads:
  Real time             =    4.88 sec. (3124.68 ticks)
  Sync time (average)   =    1.78 sec.
  Wait time (average)   =    0.00 sec.
                          ------------
Total (root+branch&cut) =   21.95 sec. (21648.55 ticks)

Solution pool: 1 solution saved.

MIP - Integer optimal solution:  Objective = -1.3084990813e+02
Solution time =   21.97 sec.  Iterations = 965  Nodes = 72
Deterministic time = 21648.71 ticks  (985.42 ticks/sec)

CPLEX> Incumbent solution written to file 'C:\Users\Luke\Desktop\competitiveMPEC_1.16\logs\tmpa55153z5.cplex.sol'.
CPLEX> Exporting results... 
